c File: data_files/evolved_graphs/g3652.col
c
c Auto generated graph
c
p edge 100 1828
e 1 2
e 1 3
e 1 4
e 1 5
e 1 8
e 1 15
e 1 19
e 1 20
e 1 25
e 1 27
e 1 28
e 1 30
e 1 31
e 1 32
e 1 34
e 1 36
e 1 37
e 1 38
e 1 39
e 1 40
e 1 42
e 1 44
e 1 45
e 1 46
e 1 47
e 1 48
e 1 49
e 1 51
e 1 52
e 1 62
e 1 73
e 1 78
e 1 85
e 1 89
e 1 91
e 1 93
e 1 96
e 1 97
e 1 100
e 2 3
e 2 4
e 2 5
e 2 6
e 2 9
e 2 10
e 2 12
e 2 13
e 2 14
e 2 15
e 2 16
e 2 17
e 2 18
e 2 19
e 2 21
e 2 22
e 2 26
e 2 30
e 2 32
e 2 33
e 2 34
e 2 35
e 2 36
e 2 38
e 2 39
e 2 40
e 2 41
e 2 42
e 2 43
e 2 44
e 2 45
e 2 46
e 2 47
e 2 49
e 2 50
e 2 51
e 2 52
e 2 74
e 2 75
e 2 85
e 2 92
e 2 94
e 2 96
e 2 97
e 2 100
e 3 4
e 3 6
e 3 8
e 3 11
e 3 12
e 3 15
e 3 16
e 3 17
e 3 18
e 3 19
e 3 22
e 3 25
e 3 26
e 3 27
e 3 28
e 3 30
e 3 31
e 3 32
e 3 33
e 3 34
e 3 35
e 3 37
e 3 39
e 3 41
e 3 44
e 3 46
e 3 47
e 3 49
e 3 50
e 3 51
e 3 52
e 3 79
e 3 81
e 3 83
e 3 85
e 3 87
e 3 88
e 3 89
e 3 90
e 3 91
e 3 96
e 3 97
e 3 99
e 3 100
e 4 5
e 4 6
e 4 8
e 4 10
e 4 11
e 4 13
e 4 15
e 4 16
e 4 18
e 4 19
e 4 21
e 4 22
e 4 23
e 4 24
e 4 25
e 4 26
e 4 27
e 4 28
e 4 30
e 4 31
e 4 33
e 4 34
e 4 35
e 4 36
e 4 37
e 4 38
e 4 39
e 4 40
e 4 41
e 4 43
e 4 44
e 4 46
e 4 48
e 4 49
e 4 50
e 4 51
e 4 52
e 4 64
e 4 71
e 4 73
e 4 74
e 4 86
e 4 88
e 4 89
e 4 92
e 4 93
e 4 95
e 4 96
e 4 100
e 5 6
e 5 7
e 5 9
e 5 10
e 5 11
e 5 12
e 5 13
e 5 14
e 5 15
e 5 16
e 5 18
e 5 19
e 5 20
e 5 21
e 5 22
e 5 24
e 5 26
e 5 27
e 5 29
e 5 30
e 5 31
e 5 33
e 5 35
e 5 37
e 5 38
e 5 44
e 5 45
e 5 46
e 5 48
e 5 49
e 5 50
e 5 51
e 5 52
e 5 53
e 5 73
e 5 74
e 5 78
e 5 87
e 5 88
e 5 91
e 5 92
e 5 94
e 5 95
e 5 97
e 5 99
e 5 100
e 6 7
e 6 8
e 6 9
e 6 10
e 6 11
e 6 12
e 6 16
e 6 17
e 6 18
e 6 19
e 6 20
e 6 21
e 6 27
e 6 28
e 6 42
e 6 44
e 6 46
e 6 49
e 6 51
e 6 53
e 6 56
e 6 60
e 6 67
e 6 72
e 6 75
e 6 77
e 6 85
e 6 91
e 6 92
e 6 93
e 6 96
e 6 98
e 6 99
e 6 100
e 7 8
e 7 9
e 7 12
e 7 13
e 7 14
e 7 15
e 7 16
e 7 20
e 7 21
e 7 22
e 7 24
e 7 25
e 7 29
e 7 32
e 7 37
e 7 39
e 7 41
e 7 45
e 7 65
e 7 68
e 7 70
e 7 71
e 7 76
e 7 79
e 7 89
e 7 92
e 7 96
e 7 99
e 7 100
e 8 9
e 8 10
e 8 11
e 8 13
e 8 14
e 8 15
e 8 16
e 8 17
e 8 18
e 8 19
e 8 20
e 8 21
e 8 22
e 8 25
e 8 26
e 8 27
e 8 29
e 8 37
e 8 43
e 8 48
e 8 50
e 8 56
e 8 62
e 8 67
e 8 69
e 8 79
e 8 83
e 8 86
e 8 87
e 8 95
e 8 97
e 8 99
e 8 100
e 9 11
e 9 12
e 9 13
e 9 14
e 9 15
e 9 16
e 9 19
e 9 20
e 9 21
e 9 26
e 9 28
e 9 38
e 9 48
e 9 54
e 9 55
e 9 57
e 9 61
e 9 73
e 9 74
e 9 75
e 9 78
e 9 85
e 9 86
e 9 88
e 9 93
e 9 96
e 9 98
e 9 100
e 10 12
e 10 14
e 10 15
e 10 16
e 10 18
e 10 19
e 10 22
e 10 27
e 10 29
e 10 35
e 10 39
e 10 47
e 10 51
e 10 52
e 10 59
e 10 62
e 10 63
e 10 65
e 10 71
e 10 77
e 10 85
e 10 96
e 10 97
e 10 100
e 11 15
e 11 17
e 11 19
e 11 24
e 11 27
e 11 28
e 11 30
e 11 31
e 11 32
e 11 33
e 11 34
e 11 36
e 11 38
e 11 39
e 11 40
e 11 41
e 11 44
e 11 45
e 11 46
e 11 51
e 11 54
e 11 58
e 11 70
e 11 71
e 11 72
e 11 79
e 11 81
e 11 82
e 11 83
e 11 84
e 11 90
e 11 95
e 11 97
e 11 98
e 11 99
e 11 100
e 12 14
e 12 16
e 12 17
e 12 19
e 12 21
e 12 22
e 12 25
e 12 28
e 12 29
e 12 31
e 12 32
e 12 33
e 12 34
e 12 37
e 12 41
e 12 42
e 12 44
e 12 55
e 12 56
e 12 57
e 12 65
e 12 69
e 12 72
e 12 74
e 12 78
e 12 81
e 12 84
e 12 90
e 12 98
e 12 99
e 13 15
e 13 16
e 13 18
e 13 19
e 13 24
e 13 30
e 13 32
e 13 34
e 13 37
e 13 49
e 13 52
e 13 55
e 13 59
e 13 64
e 13 66
e 13 67
e 13 74
e 13 78
e 13 84
e 13 89
e 13 90
e 13 93
e 13 95
e 13 96
e 13 97
e 13 98
e 13 100
e 14 15
e 14 16
e 14 17
e 14 18
e 14 20
e 14 21
e 14 28
e 14 29
e 14 35
e 14 38
e 14 44
e 14 45
e 14 48
e 14 51
e 14 52
e 14 53
e 14 65
e 14 68
e 14 81
e 14 82
e 14 85
e 14 93
e 14 94
e 14 95
e 14 96
e 14 97
e 14 98
e 14 99
e 15 16
e 15 19
e 15 20
e 15 21
e 15 22
e 15 25
e 15 29
e 15 30
e 15 33
e 15 36
e 15 42
e 15 47
e 15 51
e 15 54
e 15 60
e 15 68
e 15 76
e 15 95
e 15 96
e 15 97
e 15 98
e 15 99
e 15 100
e 16 17
e 16 18
e 16 19
e 16 21
e 16 31
e 16 32
e 16 33
e 16 42
e 16 46
e 16 52
e 16 55
e 16 61
e 16 62
e 16 64
e 16 79
e 16 82
e 16 84
e 16 88
e 16 97
e 16 98
e 16 99
e 16 100
e 17 18
e 17 19
e 17 20
e 17 25
e 17 27
e 17 30
e 17 33
e 17 34
e 17 35
e 17 42
e 17 43
e 17 46
e 17 57
e 17 58
e 17 63
e 17 72
e 17 73
e 17 80
e 17 81
e 17 84
e 17 90
e 17 96
e 17 97
e 17 100
e 18 19
e 18 23
e 18 25
e 18 27
e 18 32
e 18 34
e 18 41
e 18 43
e 18 44
e 18 45
e 18 48
e 18 49
e 18 58
e 18 60
e 18 67
e 18 69
e 18 71
e 18 72
e 18 73
e 18 74
e 18 77
e 18 91
e 18 93
e 18 94
e 18 96
e 18 99
e 18 100
e 19 21
e 19 22
e 19 26
e 19 27
e 19 28
e 19 30
e 19 33
e 19 43
e 19 44
e 19 47
e 19 52
e 19 53
e 19 59
e 19 60
e 19 61
e 19 63
e 19 69
e 19 71
e 19 72
e 19 73
e 20 22
e 20 33
e 20 36
e 20 40
e 20 51
e 20 59
e 20 62
e 20 64
e 20 66
e 20 76
e 20 79
e 21 22
e 21 24
e 21 35
e 21 36
e 21 40
e 21 41
e 21 42
e 21 46
e 21 49
e 21 53
e 21 61
e 21 70
e 21 72
e 21 75
e 21 78
e 21 80
e 21 83
e 21 87
e 22 26
e 22 33
e 22 37
e 22 50
e 22 55
e 22 59
e 22 63
e 22 67
e 22 75
e 22 80
e 23 26
e 23 29
e 23 33
e 23 62
e 23 76
e 23 78
e 24 27
e 24 29
e 24 30
e 24 33
e 24 35
e 24 44
e 24 45
e 24 49
e 24 54
e 24 65
e 25 26
e 25 29
e 25 30
e 25 38
e 25 39
e 25 42
e 25 49
e 25 56
e 25 59
e 25 78
e 25 82
e 25 90
e 26 27
e 26 28
e 26 30
e 26 32
e 26 35
e 26 38
e 26 41
e 26 46
e 26 55
e 26 66
e 26 67
e 26 69
e 26 75
e 26 77
e 26 79
e 26 90
e 27 60
e 27 79
e 28 30
e 28 33
e 28 60
e 28 62
e 28 68
e 28 69
e 28 78
e 28 82
e 28 85
e 28 93
e 29 36
e 29 57
e 29 68
e 29 69
e 29 78
e 29 90
e 29 99
e 30 47
e 30 51
e 30 56
e 30 66
e 30 80
e 30 98
e 30 100
e 31 34
e 31 35
e 31 36
e 31 40
e 31 43
e 31 46
e 31 47
e 31 49
e 31 51
e 31 52
e 31 53
e 31 55
e 31 57
e 31 58
e 31 61
e 31 62
e 31 63
e 31 65
e 31 66
e 31 68
e 31 69
e 31 71
e 31 73
e 31 75
e 31 78
e 31 79
e 31 80
e 31 83
e 32 36
e 32 41
e 32 42
e 32 45
e 32 46
e 32 47
e 32 49
e 32 50
e 32 53
e 32 55
e 32 57
e 32 58
e 32 66
e 32 67
e 32 69
e 32 70
e 32 71
e 32 72
e 32 73
e 32 74
e 32 75
e 32 76
e 32 77
e 32 80
e 33 35
e 33 36
e 33 37
e 33 39
e 33 41
e 33 45
e 33 47
e 33 49
e 33 51
e 33 52
e 33 53
e 33 55
e 33 56
e 33 57
e 33 61
e 33 63
e 33 64
e 33 66
e 33 67
e 33 68
e 33 69
e 33 71
e 33 73
e 33 77
e 33 78
e 33 79
e 33 81
e 33 82
e 33 92
e 34 35
e 34 38
e 34 39
e 34 41
e 34 44
e 34 46
e 34 49
e 34 51
e 34 52
e 34 55
e 34 57
e 34 61
e 34 62
e 34 64
e 34 65
e 34 68
e 34 69
e 34 70
e 34 72
e 34 75
e 34 76
e 34 77
e 34 78
e 34 80
e 34 81
e 34 82
e 34 83
e 35 36
e 35 39
e 35 40
e 35 41
e 35 42
e 35 44
e 35 45
e 35 51
e 35 53
e 35 57
e 35 58
e 35 62
e 35 63
e 35 65
e 35 67
e 35 69
e 35 70
e 35 71
e 35 74
e 35 75
e 35 77
e 35 80
e 36 38
e 36 40
e 36 43
e 36 45
e 36 47
e 36 48
e 36 50
e 36 51
e 36 52
e 36 54
e 36 57
e 36 58
e 36 59
e 36 61
e 36 65
e 36 66
e 36 69
e 36 72
e 36 76
e 36 77
e 36 78
e 36 79
e 36 80
e 36 81
e 36 82
e 36 88
e 36 90
e 37 38
e 37 39
e 37 40
e 37 41
e 37 45
e 37 46
e 37 47
e 37 48
e 37 50
e 37 52
e 37 53
e 37 54
e 37 55
e 37 58
e 37 62
e 37 63
e 37 64
e 37 66
e 37 67
e 37 68
e 37 69
e 37 71
e 37 72
e 37 76
e 37 80
e 37 83
e 38 39
e 38 40
e 38 42
e 38 46
e 38 52
e 38 53
e 38 54
e 38 55
e 38 56
e 38 57
e 38 58
e 38 59
e 38 62
e 38 64
e 38 66
e 38 67
e 38 71
e 38 75
e 38 76
e 38 77
e 38 78
e 38 79
e 38 80
e 38 81
e 38 82
e 38 83
e 38 85
e 38 95
e 39 43
e 39 44
e 39 46
e 39 47
e 39 49
e 39 50
e 39 51
e 39 53
e 39 57
e 39 58
e 39 64
e 39 65
e 39 66
e 39 67
e 39 70
e 39 72
e 39 76
e 39 78
e 39 82
e 39 90
e 39 93
e 40 41
e 40 42
e 40 44
e 40 46
e 40 47
e 40 51
e 40 52
e 40 53
e 40 56
e 40 58
e 40 59
e 40 60
e 40 61
e 40 62
e 40 65
e 40 66
e 40 67
e 40 69
e 40 70
e 40 73
e 40 75
e 40 77
e 40 79
e 40 80
e 40 81
e 40 82
e 41 42
e 41 44
e 41 45
e 41 46
e 41 47
e 41 49
e 41 50
e 41 54
e 41 55
e 41 56
e 41 58
e 41 59
e 41 60
e 41 62
e 41 63
e 41 64
e 41 66
e 41 67
e 41 68
e 41 72
e 41 73
e 41 76
e 41 77
e 41 78
e 41 79
e 41 80
e 41 81
e 41 82
e 41 83
e 41 95
e 42 44
e 42 45
e 42 47
e 42 48
e 42 49
e 42 55
e 42 57
e 42 59
e 42 60
e 42 61
e 42 62
e 42 63
e 42 66
e 42 67
e 42 68
e 42 69
e 42 73
e 42 75
e 42 78
e 42 80
e 43 48
e 43 49
e 43 50
e 43 51
e 43 52
e 43 55
e 43 60
e 43 61
e 43 62
e 43 63
e 43 64
e 43 65
e 43 67
e 43 68
e 43 71
e 43 72
e 43 73
e 43 76
e 43 78
e 43 80
e 44 45
e 44 46
e 44 48
e 44 50
e 44 53
e 44 55
e 44 56
e 44 57
e 44 59
e 44 62
e 44 63
e 44 64
e 44 66
e 44 69
e 44 70
e 44 71
e 44 72
e 44 76
e 44 77
e 44 78
e 44 79
e 44 81
e 44 82
e 44 95
e 45 48
e 45 50
e 45 51
e 45 54
e 45 56
e 45 59
e 45 63
e 45 64
e 45 65
e 45 66
e 45 67
e 45 69
e 45 70
e 45 72
e 45 75
e 45 82
e 45 99
e 46 49
e 46 50
e 46 52
e 46 55
e 46 58
e 46 59
e 46 60
e 46 63
e 46 67
e 46 68
e 46 70
e 46 77
e 46 78
e 46 79
e 46 80
e 46 82
e 47 48
e 47 49
e 47 52
e 47 53
e 47 55
e 47 56
e 47 57
e 47 58
e 47 59
e 47 61
e 47 62
e 47 66
e 47 68
e 47 70
e 47 71
e 47 72
e 47 73
e 47 74
e 47 75
e 47 76
e 47 78
e 47 79
e 47 80
e 47 81
e 47 82
e 47 85
e 48 49
e 48 51
e 48 55
e 48 57
e 48 58
e 48 59
e 48 60
e 48 62
e 48 63
e 48 67
e 48 68
e 48 69
e 48 70
e 48 71
e 48 75
e 48 76
e 48 79
e 48 80
e 48 81
e 48 83
e 48 88
e 49 50
e 49 51
e 49 54
e 49 57
e 49 58
e 49 59
e 49 60
e 49 61
e 49 62
e 49 63
e 49 70
e 49 72
e 49 73
e 49 74
e 49 75
e 49 77
e 49 78
e 49 80
e 49 81
e 49 82
e 50 52
e 50 56
e 50 57
e 50 58
e 50 59
e 50 62
e 50 63
e 50 66
e 50 67
e 50 68
e 50 71
e 50 73
e 50 75
e 50 76
e 50 77
e 50 78
e 50 80
e 50 81
e 50 83
e 51 52
e 51 57
e 51 59
e 51 61
e 51 62
e 51 63
e 51 65
e 51 66
e 51 68
e 51 69
e 51 72
e 51 75
e 51 76
e 51 77
e 51 80
e 51 82
e 51 98
e 52 55
e 52 56
e 52 57
e 52 58
e 52 59
e 52 60
e 52 62
e 52 63
e 52 64
e 52 66
e 52 67
e 52 71
e 52 74
e 52 76
e 52 77
e 52 79
e 52 80
e 52 81
e 52 82
e 52 83
e 53 54
e 53 55
e 53 56
e 53 57
e 53 63
e 53 65
e 53 69
e 53 75
e 53 76
e 53 77
e 53 80
e 53 82
e 53 85
e 53 86
e 53 87
e 53 90
e 53 94
e 53 95
e 53 96
e 53 97
e 53 100
e 54 55
e 54 56
e 54 57
e 54 58
e 54 59
e 54 64
e 54 65
e 54 67
e 54 68
e 54 71
e 54 73
e 54 74
e 54 76
e 54 79
e 54 82
e 54 83
e 54 84
e 54 85
e 54 86
e 54 87
e 54 89
e 54 90
e 54 91
e 54 94
e 54 96
e 54 97
e 54 98
e 54 100
e 55 57
e 55 59
e 55 61
e 55 62
e 55 63
e 55 67
e 55 69
e 55 71
e 55 72
e 55 77
e 55 78
e 55 87
e 55 89
e 55 90
e 55 91
e 55 92
e 55 93
e 55 94
e 55 95
e 55 96
e 55 98
e 55 99
e 56 57
e 56 62
e 56 63
e 56 64
e 56 68
e 56 69
e 56 71
e 56 72
e 56 75
e 56 76
e 56 77
e 56 79
e 56 82
e 56 85
e 56 86
e 56 87
e 56 88
e 56 89
e 56 93
e 56 94
e 56 95
e 56 97
e 56 98
e 56 99
e 56 100
e 57 58
e 57 61
e 57 63
e 57 64
e 57 67
e 57 69
e 57 70
e 57 78
e 57 83
e 57 84
e 57 85
e 57 87
e 57 89
e 57 90
e 57 91
e 57 92
e 57 93
e 57 94
e 57 95
e 57 97
e 57 99
e 58 61
e 58 62
e 58 63
e 58 65
e 58 73
e 58 75
e 58 76
e 58 77
e 58 80
e 58 81
e 58 83
e 58 86
e 58 87
e 58 88
e 58 89
e 58 91
e 58 92
e 58 93
e 58 94
e 58 97
e 58 100
e 59 60
e 59 64
e 59 66
e 59 67
e 59 68
e 59 69
e 59 70
e 59 71
e 59 74
e 59 76
e 59 77
e 59 78
e 59 79
e 59 81
e 59 82
e 59 83
e 59 85
e 59 88
e 59 89
e 59 90
e 59 91
e 59 92
e 59 96
e 59 97
e 59 98
e 59 99
e 59 100
e 60 64
e 60 66
e 60 67
e 60 68
e 60 70
e 60 71
e 60 72
e 60 74
e 60 78
e 60 79
e 60 80
e 60 81
e 60 82
e 60 83
e 60 85
e 60 87
e 60 91
e 60 94
e 60 95
e 60 97
e 60 98
e 60 99
e 61 66
e 61 67
e 61 68
e 61 69
e 61 71
e 61 75
e 61 76
e 61 77
e 61 79
e 61 80
e 61 81
e 61 84
e 61 88
e 61 90
e 61 91
e 61 92
e 61 93
e 61 95
e 61 96
e 61 97
e 61 98
e 61 99
e 61 100
e 62 65
e 62 66
e 62 73
e 62 74
e 62 77
e 62 78
e 62 80
e 62 82
e 62 83
e 62 84
e 62 85
e 62 86
e 62 87
e 62 88
e 62 89
e 62 90
e 62 91
e 62 96
e 62 98
e 62 99
e 63 65
e 63 66
e 63 69
e 63 70
e 63 71
e 63 73
e 63 74
e 63 75
e 63 78
e 63 79
e 63 80
e 63 81
e 63 84
e 63 85
e 63 86
e 63 87
e 63 91
e 63 92
e 63 93
e 63 94
e 63 95
e 63 97
e 63 98
e 64 66
e 64 68
e 64 71
e 64 72
e 64 76
e 64 77
e 64 78
e 64 81
e 64 84
e 64 85
e 64 88
e 64 89
e 64 91
e 64 94
e 64 95
e 64 99
e 65 69
e 65 70
e 65 72
e 65 73
e 65 74
e 65 76
e 65 77
e 65 78
e 65 81
e 65 83
e 65 84
e 65 87
e 65 88
e 65 89
e 65 91
e 65 94
e 65 96
e 65 97
e 65 98
e 65 99
e 66 68
e 66 71
e 66 72
e 66 73
e 66 74
e 66 77
e 66 78
e 66 80
e 66 81
e 66 83
e 66 84
e 66 85
e 66 86
e 66 87
e 66 88
e 66 89
e 66 90
e 66 91
e 66 92
e 66 95
e 66 96
e 66 97
e 66 98
e 67 69
e 67 71
e 67 75
e 67 76
e 67 77
e 67 78
e 67 79
e 67 81
e 67 83
e 67 84
e 67 85
e 67 86
e 67 88
e 67 93
e 67 95
e 67 96
e 67 97
e 67 99
e 67 100
e 68 70
e 68 71
e 68 73
e 68 75
e 68 77
e 68 80
e 68 81
e 68 83
e 68 84
e 68 85
e 68 87
e 68 88
e 68 89
e 68 90
e 68 92
e 68 93
e 68 95
e 68 96
e 68 99
e 69 70
e 69 71
e 69 72
e 69 73
e 69 75
e 69 77
e 69 79
e 69 80
e 69 82
e 69 83
e 69 84
e 69 86
e 69 88
e 69 89
e 69 91
e 69 92
e 69 96
e 69 97
e 69 98
e 69 99
e 69 100
e 70 72
e 70 74
e 70 76
e 70 77
e 70 78
e 70 85
e 70 86
e 70 87
e 70 89
e 70 90
e 70 93
e 70 94
e 70 95
e 70 96
e 70 97
e 70 98
e 70 99
e 70 100
e 71 72
e 71 73
e 71 76
e 71 77
e 71 78
e 71 80
e 71 81
e 71 82
e 71 86
e 71 88
e 71 93
e 71 96
e 72 73
e 72 74
e 72 75
e 72 77
e 72 79
e 72 81
e 72 83
e 72 84
e 72 86
e 72 89
e 72 91
e 72 93
e 72 94
e 72 96
e 73 77
e 73 84
e 73 85
e 73 86
e 73 87
e 73 92
e 73 93
e 73 98
e 73 99
e 74 75
e 74 77
e 74 78
e 74 81
e 74 82
e 74 83
e 74 89
e 74 90
e 74 93
e 74 94
e 74 96
e 74 98
e 74 99
e 75 76
e 75 80
e 75 81
e 75 82
e 75 83
e 75 85
e 75 86
e 75 88
e 75 93
e 75 96
e 75 98
e 76 77
e 76 80
e 76 83
e 76 84
e 76 85
e 76 86
e 76 88
e 76 89
e 76 92
e 76 93
e 76 94
e 76 96
e 76 97
e 76 100
e 77 78
e 77 79
e 77 80
e 77 81
e 77 82
e 77 88
e 77 89
e 77 91
e 77 94
e 77 95
e 77 96
e 77 97
e 77 99
e 78 80
e 78 81
e 78 84
e 78 85
e 78 89
e 78 90
e 78 91
e 78 92
e 78 97
e 78 100
e 79 80
e 79 82
e 79 83
e 79 85
e 79 86
e 79 89
e 79 90
e 79 93
e 79 95
e 79 98
e 80 81
e 80 82
e 80 83
e 80 90
e 80 91
e 80 92
e 80 93
e 80 94
e 80 98
e 80 100
e 81 82
e 81 85
e 81 87
e 81 88
e 81 91
e 81 92
e 81 93
e 81 97
e 81 100
e 82 86
e 82 87
e 82 88
e 82 90
e 82 91
e 82 92
e 82 93
e 82 95
e 82 98
e 82 100
e 83 85
e 83 86
e 83 88
e 83 89
e 83 95
e 83 96
e 83 97
e 83 98
e 83 100
e 84 85
e 84 87
e 84 88
e 84 89
e 84 96
e 84 97
e 84 98
e 84 99
e 84 100
e 85 86
e 85 88
e 85 90
e 85 92
e 85 94
e 85 96
e 85 97
e 85 100
e 86 87
e 86 88
e 86 89
e 86 93
e 86 94
e 86 95
e 86 97
e 86 99
e 87 92
e 87 94
e 87 95
e 87 98
e 87 99
e 88 90
e 88 94
e 88 97
e 88 99
e 88 100
e 89 92
e 89 95
e 89 96
e 89 97
e 89 98
e 89 99
e 89 100
e 90 92
e 90 95
e 90 96
e 90 97
e 90 99
e 91 92
e 91 98
e 91 99
e 92 94
e 92 95
e 92 99
e 93 94
e 93 98
e 93 99
e 93 100
e 94 95
e 94 96
e 94 98
e 94 99
e 95 97
e 95 98
e 95 100
e 96 97
e 96 98
e 96 100
e 97 98
e 97 99
e 99 100
